sat
(
(define-fun sym209 () String "Y")
(define-fun sym1703 () String "P")
(define-fun sym817 () String "K")
(define-fun sym1921 () String "P")
(define-fun sym3217 () String "G")
(define-fun sym1039 () String "G")
(define-fun sym551 () String "P")
(define-fun sym2139 () String "P")
(define-fun sym2357 () String "P")
(define-fun sym2575 () String "P")
(define-fun sym3433 () String "G")
(define-fun sym2793 () String "P")
(define-fun sym1264 () String "H")
(define-fun sym3530 () String "A")
(define-fun sym1485 () String "P")
(define-fun sym3011 () String "K")
(define-fun sym161 () String "")
)
